SCIP version 5.0.0 [precision: 8 byte] [memory: block] [mode: optimized] [LP solver: NONE] [GitHash: 3bbd232]
Copyright (C) 2002-2017 Konrad-Zuse-Zentrum fuer Informationstechnik Berlin (ZIB)

External codes: 
  Readline EditLine w  GNU library for command line editing (gnu.org/s/readline)
  CppAD 20160000.1     Algorithmic Differentiation of C++ algorithms developed by B. Bell (www.coin-or.org/CppAD)
  ZLIB 1.2.5           General purpose compression library by J. Gailly and M. Adler (zlib.net)
  GMP 6.1.2            GNU Multiple Precision Arithmetic Library developed by T. Granlund (gmplib.org)

user parameter file <scip.set> not found - using default parameters

read problem <../../Split_data/output/parkin/5/1_sample_parkin.logreg>
============

File name	:	../../Split_data/output/parkin/5/1_sample_parkin.logreg
Problem name 	:	1_sample_parkin
Number of data	:	156
Number of var	:	22
The given data has linear independence

[dim=1] time: 0.004171
[dim=2] time: 0.006829
[dim=3] time: 0.009438
[dim=4] time: 0.01359
[dim=5] time: 0.016304
[dim=6] time: 0.02057
[dim=7] time: 0.0232
[dim=8] Time of forward = 0.025712sec.
AIC: 101.033
k: 7

[dim=22] time: 0.036553
[dim=21] time: 0.069069
[dim=20] time: 0.084202
[dim=19] time: 0.089282
[dim=18] time: 0.09216
[dim=17] time: 0.099614
[dim=16] time: 0.10446
[dim=15] time: 0.107277
[dim=14] time: 0.109235
[dim=13] time: 0.111091
[dim=12] time: 0.113121
[dim=11] Time of backward = 0.115073sec.
AIC: 95.9677
k: 12
